c "random instance"
p edges 150 4393
e 1 2
e 1 10
e 1 12
e 1 13
e 1 15
e 1 17
e 1 21
e 1 24
e 1 25
e 1 28
e 1 30
e 1 34
e 1 36
e 1 37
e 1 44
e 1 45
e 1 49
e 1 52
e 1 63
e 1 66
e 1 69
e 1 74
e 1 76
e 1 77
e 1 80
e 1 81
e 1 82
e 1 83
e 1 85
e 1 86
e 1 87
e 1 88
e 1 89
e 1 90
e 1 92
e 1 96
e 1 97
e 1 98
e 1 99
e 1 107
e 1 108
e 1 112
e 1 117
e 1 118
e 1 119
e 1 120
e 1 121
e 1 126
e 1 130
e 1 131
e 1 135
e 1 141
e 1 142
e 1 143
e 1 150
e 2 4
e 2 8
e 2 10
e 2 14
e 2 15
e 2 16
e 2 19
e 2 20
e 2 21
e 2 22
e 2 25
e 2 26
e 2 28
e 2 30
e 2 32
e 2 35
e 2 38
e 2 40
e 2 47
e 2 50
e 2 52
e 2 54
e 2 56
e 2 59
e 2 61
e 2 65
e 2 66
e 2 69
e 2 70
e 2 71
e 2 77
e 2 78
e 2 83
e 2 85
e 2 86
e 2 87
e 2 91
e 2 93
e 2 94
e 2 95
e 2 96
e 2 97
e 2 99
e 2 100
e 2 102
e 2 105
e 2 111
e 2 112
e 2 114
e 2 115
e 2 116
e 2 118
e 2 119
e 2 126
e 2 127
e 2 129
e 2 132
e 2 133
e 2 134
e 2 135
e 2 136
e 2 137
e 2 140
e 2 141
e 3 5
e 3 9
e 3 10
e 3 11
e 3 12
e 3 15
e 3 16
e 3 19
e 3 20
e 3 21
e 3 22
e 3 23
e 3 26
e 3 29
e 3 33
e 3 37
e 3 39
e 3 43
e 3 46
e 3 48
e 3 55
e 3 58
e 3 59
e 3 60
e 3 61
e 3 62
e 3 63
e 3 64
e 3 67
e 3 68
e 3 71
e 3 74
e 3 76
e 3 77
e 3 79
e 3 83
e 3 84
e 3 86
e 3 88
e 3 90
e 3 92
e 3 93
e 3 101
e 3 105
e 3 111
e 3 114
e 3 119
e 3 125
e 3 126
e 3 127
e 3 128
e 3 130
e 3 132
e 3 135
e 3 136
e 3 137
e 3 140
e 3 141
e 3 146
e 3 150
e 4 5
e 4 6
e 4 7
e 4 8
e 4 10
e 4 11
e 4 14
e 4 15
e 4 17
e 4 18
e 4 20
e 4 24
e 4 25
e 4 29
e 4 37
e 4 41
e 4 42
e 4 43
e 4 48
e 4 49
e 4 52
e 4 55
e 4 58
e 4 59
e 4 64
e 4 70
e 4 73
e 4 74
e 4 79
e 4 81
e 4 82
e 4 83
e 4 84
e 4 85
e 4 90
e 4 91
e 4 95
e 4 97
e 4 99
e 4 101
e 4 105
e 4 106
e 4 109
e 4 111
e 4 116
e 4 117
e 4 122
e 4 123
e 4 124
e 4 130
e 4 131
e 4 136
e 4 138
e 4 139
e 4 148
e 4 149
e 5 6
e 5 8
e 5 9
e 5 11
e 5 12
e 5 13
e 5 17
e 5 20
e 5 21
e 5 23
e 5 31
e 5 32
e 5 33
e 5 36
e 5 40
e 5 41
e 5 42
e 5 49
e 5 54
e 5 55
e 5 56
e 5 62
e 5 67
e 5 68
e 5 71
e 5 73
e 5 74
e 5 80
e 5 83
e 5 84
e 5 85
e 5 88
e 5 89
e 5 93
e 5 98
e 5 102
e 5 106
e 5 111
e 5 114
e 5 117
e 5 118
e 5 121
e 5 123
e 5 126
e 5 128
e 5 129
e 5 130
e 5 133
e 5 134
e 5 135
e 5 136
e 5 140
e 5 145
e 5 147
e 5 149
e 6 7
e 6 10
e 6 11
e 6 12
e 6 15
e 6 16
e 6 19
e 6 24
e 6 25
e 6 26
e 6 29
e 6 31
e 6 32
e 6 36
e 6 37
e 6 38
e 6 40
e 6 44
e 6 45
e 6 46
e 6 57
e 6 59
e 6 60
e 6 61
e 6 62
e 6 64
e 6 65
e 6 67
e 6 68
e 6 69
e 6 74
e 6 75
e 6 76
e 6 77
e 6 78
e 6 81
e 6 85
e 6 86
e 6 89
e 6 92
e 6 93
e 6 95
e 6 97
e 6 98
e 6 102
e 6 103
e 6 105
e 6 106
e 6 110
e 6 111
e 6 115
e 6 116
e 6 121
e 6 125
e 6 126
e 6 127
e 6 128
e 6 130
e 6 131
e 6 136
e 6 137
e 6 141
e 6 143
e 6 145
e 6 146
e 6 147
e 7 8
e 7 13
e 7 15
e 7 16
e 7 21
e 7 23
e 7 25
e 7 28
e 7 29
e 7 30
e 7 32
e 7 36
e 7 39
e 7 44
e 7 45
e 7 47
e 7 48
e 7 51
e 7 52
e 7 65
e 7 66
e 7 70
e 7 71
e 7 72
e 7 77
e 7 83
e 7 84
e 7 86
e 7 90
e 7 91
e 7 93
e 7 94
e 7 95
e 7 97
e 7 98
e 7 100
e 7 104
e 7 106
e 7 107
e 7 109
e 7 111
e 7 112
e 7 114
e 7 115
e 7 124
e 7 126
e 7 132
e 7 133
e 7 136
e 7 139
e 7 140
e 7 141
e 7 142
e 7 144
e 7 146
e 7 147
e 7 148
e 8 9
e 8 12
e 8 13
e 8 15
e 8 16
e 8 17
e 8 20
e 8 21
e 8 24
e 8 26
e 8 27
e 8 30
e 8 31
e 8 32
e 8 33
e 8 36
e 8 39
e 8 40
e 8 49
e 8 53
e 8 57
e 8 60
e 8 63
e 8 66
e 8 73
e 8 75
e 8 76
e 8 79
e 8 83
e 8 86
e 8 90
e 8 92
e 8 94
e 8 96
e 8 99
e 8 102
e 8 103
e 8 104
e 8 106
e 8 107
e 8 116
e 8 118
e 8 120
e 8 123
e 8 126
e 8 127
e 8 128
e 8 131
e 8 135
e 8 136
e 8 137
e 8 143
e 8 149
e 9 10
e 9 11
e 9 12
e 9 15
e 9 16
e 9 20
e 9 23
e 9 25
e 9 26
e 9 29
e 9 36
e 9 39
e 9 40
e 9 42
e 9 45
e 9 47
e 9 48
e 9 51
e 9 52
e 9 54
e 9 55
e 9 61
e 9 63
e 9 73
e 9 74
e 9 77
e 9 78
e 9 79
e 9 82
e 9 84
e 9 86
e 9 87
e 9 88
e 9 91
e 9 92
e 9 95
e 9 100
e 9 101
e 9 102
e 9 105
e 9 108
e 9 110
e 9 113
e 9 117
e 9 118
e 9 119
e 9 120
e 9 123
e 9 125
e 9 136
e 9 137
e 9 140
e 9 142
e 9 144
e 9 145
e 9 148
e 10 11
e 10 14
e 10 17
e 10 19
e 10 23
e 10 24
e 10 25
e 10 26
e 10 27
e 10 28
e 10 32
e 10 33
e 10 34
e 10 36
e 10 41
e 10 42
e 10 44
e 10 45
e 10 48
e 10 55
e 10 56
e 10 58
e 10 62
e 10 63
e 10 64
e 10 66
e 10 68
e 10 70
e 10 71
e 10 77
e 10 81
e 10 88
e 10 91
e 10 96
e 10 101
e 10 102
e 10 104
e 10 105
e 10 107
e 10 111
e 10 112
e 10 113
e 10 115
e 10 117
e 10 118
e 10 120
e 10 122
e 10 123
e 10 127
e 10 128
e 10 130
e 10 138
e 10 139
e 10 141
e 10 147
e 10 148
e 11 16
e 11 20
e 11 25
e 11 27
e 11 29
e 11 34
e 11 36
e 11 38
e 11 40
e 11 41
e 11 42
e 11 46
e 11 47
e 11 48
e 11 53
e 11 55
e 11 56
e 11 65
e 11 66
e 11 71
e 11 75
e 11 79
e 11 80
e 11 87
e 11 90
e 11 92
e 11 94
e 11 95
e 11 96
e 11 98
e 11 99
e 11 100
e 11 101
e 11 102
e 11 103
e 11 106
e 11 107
e 11 108
e 11 111
e 11 112
e 11 115
e 11 118
e 11 120
e 11 122
e 11 123
e 11 126
e 11 127
e 11 128
e 11 134
e 11 135
e 11 139
e 11 140
e 11 141
e 11 143
e 11 144
e 11 145
e 11 148
e 12 16
e 12 17
e 12 22
e 12 25
e 12 26
e 12 32
e 12 34
e 12 38
e 12 39
e 12 41
e 12 42
e 12 43
e 12 44
e 12 45
e 12 47
e 12 48
e 12 49
e 12 58
e 12 59
e 12 60
e 12 62
e 12 66
e 12 67
e 12 68
e 12 70
e 12 71
e 12 72
e 12 73
e 12 76
e 12 77
e 12 80
e 12 86
e 12 90
e 12 94
e 12 97
e 12 100
e 12 101
e 12 103
e 12 109
e 12 110
e 12 111
e 12 112
e 12 113
e 12 115
e 12 118
e 12 121
e 12 124
e 12 126
e 12 127
e 12 129
e 12 131
e 12 132
e 12 133
e 12 134
e 12 135
e 12 137
e 12 138
e 12 140
e 12 141
e 12 143
e 12 146
e 12 147
e 12 149
e 13 14
e 13 15
e 13 18
e 13 21
e 13 24
e 13 25
e 13 26
e 13 30
e 13 31
e 13 34
e 13 35
e 13 36
e 13 39
e 13 40
e 13 42
e 13 43
e 13 47
e 13 49
e 13 52
e 13 55
e 13 58
e 13 59
e 13 66
e 13 68
e 13 73
e 13 74
e 13 79
e 13 80
e 13 82
e 13 87
e 13 95
e 13 97
e 13 98
e 13 99
e 13 101
e 13 105
e 13 109
e 13 110
e 13 115
e 13 116
e 13 117
e 13 119
e 13 122
e 13 125
e 13 130
e 13 131
e 13 133
e 13 135
e 13 139
e 13 141
e 13 142
e 13 147
e 13 148
e 13 149
e 13 150
e 14 16
e 14 17
e 14 18
e 14 19
e 14 22
e 14 23
e 14 25
e 14 29
e 14 31
e 14 32
e 14 33
e 14 38
e 14 43
e 14 44
e 14 48
e 14 49
e 14 50
e 14 58
e 14 60
e 14 61
e 14 62
e 14 69
e 14 74
e 14 76
e 14 79
e 14 80
e 14 81
e 14 82
e 14 83
e 14 84
e 14 85
e 14 86
e 14 87
e 14 93
e 14 96
e 14 97
e 14 99
e 14 100
e 14 101
e 14 108
e 14 110
e 14 111
e 14 112
e 14 113
e 14 114
e 14 115
e 14 117
e 14 118
e 14 119
e 14 122
e 14 123
e 14 125
e 14 126
e 14 127
e 14 129
e 14 132
e 14 133
e 14 137
e 14 141
e 14 142
e 14 144
e 14 146
e 14 147
e 14 148
e 15 19
e 15 21
e 15 23
e 15 24
e 15 29
e 15 31
e 15 32
e 15 33
e 15 34
e 15 36
e 15 38
e 15 39
e 15 40
e 15 41
e 15 42
e 15 46
e 15 49
e 15 53
e 15 54
e 15 55
e 15 59
e 15 62
e 15 64
e 15 67
e 15 68
e 15 70
e 15 71
e 15 76
e 15 79
e 15 80
e 15 82
e 15 85
e 15 89
e 15 90
e 15 93
e 15 94
e 15 95
e 15 96
e 15 98
e 15 100
e 15 101
e 15 103
e 15 106
e 15 109
e 15 112
e 15 114
e 15 115
e 15 117
e 15 122
e 15 123
e 15 131
e 15 132
e 15 133
e 15 135
e 15 136
e 15 137
e 15 142
e 15 144
e 15 145
e 15 147
e 15 148
e 16 19
e 16 21
e 16 22
e 16 25
e 16 27
e 16 28
e 16 32
e 16 37
e 16 39
e 16 40
e 16 42
e 16 49
e 16 50
e 16 52
e 16 54
e 16 55
e 16 59
e 16 60
e 16 63
e 16 64
e 16 65
e 16 66
e 16 67
e 16 69
e 16 70
e 16 74
e 16 76
e 16 79
e 16 81
e 16 82
e 16 90
e 16 94
e 16 98
e 16 99
e 16 100
e 16 104
e 16 106
e 16 107
e 16 108
e 16 110
e 16 117
e 16 118
e 16 120
e 16 122
e 16 124
e 16 125
e 16 126
e 16 127
e 16 130
e 16 140
e 16 142
e 16 143
e 16 146
e 16 148
e 17 19
e 17 25
e 17 27
e 17 28
e 17 29
e 17 31
e 17 32
e 17 34
e 17 35
e 17 36
e 17 37
e 17 39
e 17 41
e 17 42
e 17 44
e 17 46
e 17 47
e 17 49
e 17 51
e 17 52
e 17 55
e 17 56
e 17 63
e 17 64
e 17 65
e 17 74
e 17 77
e 17 78
e 17 81
e 17 84
e 17 93
e 17 99
e 17 106
e 17 108
e 17 110
e 17 111
e 17 115
e 17 117
e 17 126
e 17 127
e 17 129
e 17 134
e 17 137
e 17 142
e 17 143
e 17 145
e 17 147
e 17 149
e 17 150
e 18 24
e 18 26
e 18 27
e 18 30
e 18 33
e 18 34
e 18 39
e 18 42
e 18 46
e 18 50
e 18 51
e 18 52
e 18 57
e 18 58
e 18 59
e 18 62
e 18 63
e 18 66
e 18 67
e 18 71
e 18 72
e 18 74
e 18 77
e 18 79
e 18 81
e 18 87
e 18 92
e 18 96
e 18 98
e 18 99
e 18 100
e 18 102
e 18 105
e 18 109
e 18 114
e 18 116
e 18 118
e 18 121
e 18 123
e 18 127
e 18 128
e 18 130
e 18 136
e 18 138
e 18 139
e 18 140
e 18 143
e 18 145
e 18 147
e 18 148
e 19 22
e 19 25
e 19 26
e 19 29
e 19 31
e 19 34
e 19 36
e 19 37
e 19 38
e 19 41
e 19 43
e 19 46
e 19 47
e 19 49
e 19 51
e 19 55
e 19 56
e 19 57
e 19 58
e 19 61
e 19 62
e 19 63
e 19 65
e 19 67
e 19 69
e 19 70
e 19 72
e 19 85
e 19 88
e 19 90
e 19 93
e 19 95
e 19 98
e 19 100
e 19 102
e 19 107
e 19 109
e 19 110
e 19 114
e 19 118
e 19 119
e 19 121
e 19 123
e 19 124
e 19 125
e 19 127
e 19 131
e 19 132
e 19 133
e 19 135
e 19 136
e 19 140
e 19 143
e 20 21
e 20 23
e 20 25
e 20 26
e 20 27
e 20 28
e 20 29
e 20 31
e 20 35
e 20 37
e 20 38
e 20 39
e 20 40
e 20 46
e 20 48
e 20 49
e 20 53
e 20 59
e 20 61
e 20 62
e 20 63
e 20 65
e 20 66
e 20 67
e 20 68
e 20 70
e 20 72
e 20 74
e 20 76
e 20 78
e 20 79
e 20 84
e 20 85
e 20 90
e 20 91
e 20 103
e 20 104
e 20 105
e 20 107
e 20 108
e 20 113
e 20 115
e 20 118
e 20 119
e 20 122
e 20 124
e 20 125
e 20 127
e 20 129
e 20 134
e 20 138
e 20 139
e 20 140
e 20 142
e 20 143
e 20 146
e 21 22
e 21 24
e 21 25
e 21 27
e 21 31
e 21 32
e 21 36
e 21 37
e 21 39
e 21 40
e 21 41
e 21 42
e 21 45
e 21 48
e 21 49
e 21 50
e 21 52
e 21 54
e 21 57
e 21 60
e 21 72
e 21 75
e 21 78
e 21 80
e 21 83
e 21 84
e 21 86
e 21 91
e 21 97
e 21 101
e 21 102
e 21 104
e 21 110
e 21 112
e 21 115
e 21 118
e 21 119
e 21 121
e 21 123
e 21 124
e 21 127
e 21 128
e 21 133
e 21 134
e 21 139
e 21 147
e 21 148
e 22 25
e 22 27
e 22 28
e 22 29
e 22 31
e 22 32
e 22 35
e 22 39
e 22 40
e 22 43
e 22 49
e 22 50
e 22 57
e 22 58
e 22 60
e 22 68
e 22 70
e 22 73
e 22 75
e 22 77
e 22 78
e 22 80
e 22 81
e 22 82
e 22 83
e 22 84
e 22 85
e 22 87
e 22 88
e 22 89
e 22 95
e 22 107
e 22 108
e 22 110
e 22 111
e 22 113
e 22 117
e 22 118
e 22 123
e 22 124
e 22 126
e 22 129
e 22 130
e 22 131
e 22 133
e 22 134
e 22 135
e 22 137
e 22 140
e 22 141
e 22 142
e 22 145
e 22 150
e 23 27
e 23 29
e 23 31
e 23 33
e 23 34
e 23 41
e 23 42
e 23 46
e 23 54
e 23 55
e 23 56
e 23 57
e 23 59
e 23 60
e 23 62
e 23 67
e 23 68
e 23 70
e 23 72
e 23 73
e 23 76
e 23 80
e 23 86
e 23 88
e 23 89
e 23 94
e 23 99
e 23 104
e 23 105
e 23 106
e 23 111
e 23 114
e 23 119
e 23 120
e 23 121
e 23 124
e 23 125
e 23 129
e 23 130
e 23 132
e 23 135
e 23 140
e 23 146
e 23 147
e 23 149
e 24 26
e 24 27
e 24 30
e 24 31
e 24 34
e 24 37
e 24 38
e 24 41
e 24 47
e 24 48
e 24 54
e 24 55
e 24 56
e 24 57
e 24 58
e 24 62
e 24 65
e 24 66
e 24 68
e 24 69
e 24 72
e 24 73
e 24 74
e 24 77
e 24 80
e 24 81
e 24 82
e 24 84
e 24 87
e 24 89
e 24 90
e 24 92
e 24 94
e 24 95
e 24 96
e 24 99
e 24 100
e 24 101
e 24 104
e 24 108
e 24 111
e 24 115
e 24 116
e 24 117
e 24 120
e 24 124
e 24 125
e 24 126
e 24 127
e 24 132
e 24 134
e 24 135
e 24 138
e 24 141
e 24 142
e 24 143
e 25 26
e 25 28
e 25 30
e 25 37
e 25 41
e 25 45
e 25 50
e 25 54
e 25 57
e 25 58
e 25 59
e 25 60
e 25 63
e 25 65
e 25 69
e 25 70
e 25 72
e 25 75
e 25 76
e 25 80
e 25 81
e 25 84
e 25 85
e 25 88
e 25 89
e 25 91
e 25 92
e 25 96
e 25 99
e 25 100
e 25 104
e 25 107
e 25 108
e 25 109
e 25 110
e 25 111
e 25 116
e 25 117
e 25 118
e 25 119
e 25 120
e 25 123
e 25 125
e 25 130
e 25 133
e 25 142
e 25 144
e 26 28
e 26 29
e 26 32
e 26 37
e 26 41
e 26 42
e 26 44
e 26 50
e 26 52
e 26 53
e 26 54
e 26 56
e 26 57
e 26 60
e 26 63
e 26 67
e 26 71
e 26 72
e 26 75
e 26 76
e 26 77
e 26 80
e 26 81
e 26 86
e 26 91
e 26 92
e 26 94
e 26 96
e 26 100
e 26 101
e 26 105
e 26 108
e 26 112
e 26 113
e 26 114
e 26 116
e 26 122
e 26 126
e 26 127
e 26 132
e 26 134
e 26 143
e 26 144
e 26 146
e 26 149
e 27 28
e 27 31
e 27 32
e 27 33
e 27 36
e 27 37
e 27 41
e 27 45
e 27 50
e 27 51
e 27 52
e 27 54
e 27 55
e 27 56
e 27 57
e 27 61
e 27 62
e 27 63
e 27 69
e 27 70
e 27 74
e 27 75
e 27 76
e 27 77
e 27 79
e 27 83
e 27 88
e 27 89
e 27 90
e 27 91
e 27 92
e 27 94
e 27 96
e 27 97
e 27 98
e 27 103
e 27 108
e 27 109
e 27 111
e 27 112
e 27 116
e 27 117
e 27 118
e 27 122
e 27 128
e 27 129
e 27 130
e 27 131
e 27 137
e 27 142
e 27 147
e 27 148
e 27 150
e 28 29
e 28 30
e 28 31
e 28 36
e 28 37
e 28 39
e 28 40
e 28 43
e 28 46
e 28 47
e 28 48
e 28 49
e 28 54
e 28 55
e 28 56
e 28 57
e 28 60
e 28 61
e 28 65
e 28 66
e 28 70
e 28 72
e 28 73
e 28 81
e 28 83
e 28 86
e 28 91
e 28 92
e 28 94
e 28 95
e 28 96
e 28 99
e 28 102
e 28 103
e 28 105
e 28 108
e 28 109
e 28 110
e 28 115
e 28 118
e 28 122
e 28 123
e 28 124
e 28 127
e 28 130
e 28 134
e 28 137
e 28 144
e 28 145
e 28 149
e 29 33
e 29 34
e 29 35
e 29 40
e 29 42
e 29 43
e 29 46
e 29 47
e 29 55
e 29 57
e 29 63
e 29 65
e 29 76
e 29 78
e 29 79
e 29 80
e 29 87
e 29 90
e 29 91
e 29 92
e 29 96
e 29 101
e 29 103
e 29 106
e 29 108
e 29 109
e 29 113
e 29 119
e 29 124
e 29 127
e 29 130
e 29 135
e 29 136
e 29 140
e 29 141
e 29 144
e 29 145
e 29 147
e 29 148
e 30 32
e 30 34
e 30 38
e 30 39
e 30 43
e 30 46
e 30 48
e 30 50
e 30 54
e 30 55
e 30 57
e 30 60
e 30 61
e 30 63
e 30 67
e 30 68
e 30 71
e 30 74
e 30 75
e 30 77
e 30 79
e 30 82
e 30 83
e 30 91
e 30 92
e 30 100
e 30 101
e 30 103
e 30 104
e 30 105
e 30 106
e 30 108
e 30 110
e 30 114
e 30 115
e 30 116
e 30 118
e 30 119
e 30 122
e 30 123
e 30 124
e 30 125
e 30 126
e 30 127
e 30 130
e 30 135
e 30 138
e 30 139
e 30 147
e 30 148
e 30 149
e 30 150
e 31 32
e 31 33
e 31 44
e 31 45
e 31 46
e 31 54
e 31 62
e 31 63
e 31 64
e 31 69
e 31 71
e 31 79
e 31 89
e 31 90
e 31 92
e 31 95
e 31 96
e 31 101
e 31 103
e 31 106
e 31 107
e 31 108
e 31 111
e 31 112
e 31 114
e 31 116
e 31 117
e 31 122
e 31 126
e 31 128
e 31 129
e 31 133
e 31 136
e 31 137
e 31 141
e 31 142
e 31 144
e 31 145
e 31 148
e 31 149
e 31 150
e 32 36
e 32 37
e 32 38
e 32 39
e 32 42
e 32 45
e 32 50
e 32 54
e 32 65
e 32 68
e 32 73
e 32 74
e 32 75
e 32 76
e 32 83
e 32 85
e 32 86
e 32 88
e 32 89
e 32 90
e 32 95
e 32 97
e 32 101
e 32 102
e 32 103
e 32 104
e 32 108
e 32 111
e 32 113
e 32 116
e 32 117
e 32 118
e 32 123
e 32 127
e 32 128
e 32 134
e 32 137
e 32 138
e 32 140
e 32 144
e 32 145
e 32 146
e 32 147
e 32 149
e 32 150
e 33 36
e 33 39
e 33 40
e 33 44
e 33 45
e 33 46
e 33 51
e 33 52
e 33 53
e 33 56
e 33 62
e 33 68
e 33 71
e 33 72
e 33 77
e 33 80
e 33 82
e 33 83
e 33 84
e 33 85
e 33 86
e 33 88
e 33 92
e 33 94
e 33 97
e 33 98
e 33 101
e 33 102
e 33 106
e 33 110
e 33 114
e 33 118
e 33 120
e 33 121
e 33 122
e 33 126
e 33 130
e 33 133
e 33 134
e 33 135
e 33 136
e 33 138
e 33 145
e 33 147
e 33 150
e 34 43
e 34 46
e 34 47
e 34 54
e 34 57
e 34 65
e 34 72
e 34 74
e 34 75
e 34 77
e 34 79
e 34 80
e 34 81
e 34 89
e 34 91
e 34 95
e 34 98
e 34 102
e 34 103
e 34 104
e 34 107
e 34 108
e 34 110
e 34 112
e 34 115
e 34 118
e 34 119
e 34 120
e 34 122
e 34 131
e 34 134
e 34 135
e 34 136
e 34 143
e 34 148
e 35 36
e 35 37
e 35 41
e 35 44
e 35 45
e 35 47
e 35 54
e 35 55
e 35 56
e 35 57
e 35 59
e 35 60
e 35 64
e 35 66
e 35 67
e 35 68
e 35 69
e 35 73
e 35 76
e 35 79
e 35 80
e 35 82
e 35 88
e 35 89
e 35 91
e 35 93
e 35 94
e 35 95
e 35 96
e 35 101
e 35 110
e 35 113
e 35 120
e 35 121
e 35 123
e 35 126
e 35 127
e 35 132
e 35 133
e 35 139
e 35 141
e 35 145
e 35 146
e 35 148
e 35 150
e 36 39
e 36 42
e 36 45
e 36 46
e 36 49
e 36 50
e 36 51
e 36 52
e 36 54
e 36 55
e 36 57
e 36 61
e 36 62
e 36 67
e 36 68
e 36 69
e 36 71
e 36 74
e 36 75
e 36 78
e 36 79
e 36 81
e 36 82
e 36 84
e 36 86
e 36 87
e 36 91
e 36 92
e 36 94
e 36 95
e 36 97
e 36 99
e 36 105
e 36 106
e 36 107
e 36 108
e 36 113
e 36 116
e 36 117
e 36 120
e 36 128
e 36 129
e 36 135
e 36 136
e 36 137
e 36 142
e 36 145
e 36 146
e 36 148
e 36 149
e 37 38
e 37 41
e 37 42
e 37 46
e 37 47
e 37 54
e 37 56
e 37 58
e 37 59
e 37 60
e 37 61
e 37 62
e 37 63
e 37 65
e 37 66
e 37 67
e 37 71
e 37 72
e 37 73
e 37 74
e 37 81
e 37 82
e 37 96
e 37 99
e 37 101
e 37 107
e 37 108
e 37 112
e 37 116
e 37 118
e 37 120
e 37 126
e 37 128
e 37 129
e 37 131
e 37 132
e 37 133
e 37 134
e 37 135
e 37 141
e 37 144
e 37 149
e 37 150
e 38 41
e 38 44
e 38 50
e 38 51
e 38 52
e 38 53
e 38 54
e 38 56
e 38 58
e 38 59
e 38 62
e 38 63
e 38 68
e 38 74
e 38 78
e 38 84
e 38 85
e 38 88
e 38 89
e 38 91
e 38 93
e 38 96
e 38 100
e 38 101
e 38 107
e 38 108
e 38 110
e 38 112
e 38 113
e 38 116
e 38 117
e 38 118
e 38 120
e 38 121
e 38 123
e 38 129
e 38 130
e 38 133
e 38 134
e 38 138
e 38 141
e 38 142
e 38 146
e 38 147
e 38 149
e 38 150
e 39 41
e 39 44
e 39 45
e 39 48
e 39 49
e 39 51
e 39 53
e 39 55
e 39 58
e 39 62
e 39 63
e 39 64
e 39 67
e 39 72
e 39 75
e 39 76
e 39 77
e 39 78
e 39 80
e 39 81
e 39 84
e 39 85
e 39 86
e 39 87
e 39 89
e 39 92
e 39 93
e 39 95
e 39 96
e 39 97
e 39 102
e 39 104
e 39 113
e 39 115
e 39 120
e 39 126
e 39 128
e 39 129
e 39 134
e 39 135
e 39 142
e 39 144
e 39 145
e 39 147
e 39 149
e 40 49
e 40 52
e 40 56
e 40 60
e 40 62
e 40 63
e 40 65
e 40 72
e 40 74
e 40 79
e 40 80
e 40 82
e 40 87
e 40 88
e 40 89
e 40 91
e 40 92
e 40 99
e 40 102
e 40 103
e 40 105
e 40 112
e 40 117
e 40 118
e 40 119
e 40 120
e 40 121
e 40 125
e 40 129
e 40 131
e 40 139
e 40 141
e 40 143
e 41 49
e 41 50
e 41 51
e 41 52
e 41 55
e 41 56
e 41 57
e 41 58
e 41 61
e 41 63
e 41 64
e 41 66
e 41 68
e 41 70
e 41 72
e 41 73
e 41 74
e 41 75
e 41 77
e 41 78
e 41 88
e 41 89
e 41 92
e 41 94
e 41 98
e 41 100
e 41 109
e 41 111
e 41 113
e 41 115
e 41 118
e 41 119
e 41 122
e 41 123
e 41 125
e 41 126
e 41 132
e 41 133
e 41 135
e 41 140
e 41 144
e 41 147
e 41 150
e 42 43
e 42 45
e 42 46
e 42 49
e 42 50
e 42 52
e 42 54
e 42 55
e 42 56
e 42 57
e 42 58
e 42 65
e 42 66
e 42 67
e 42 69
e 42 72
e 42 75
e 42 76
e 42 77
e 42 78
e 42 79
e 42 80
e 42 81
e 42 82
e 42 85
e 42 90
e 42 92
e 42 94
e 42 95
e 42 97
e 42 98
e 42 105
e 42 106
e 42 107
e 42 110
e 42 111
e 42 113
e 42 115
e 42 116
e 42 122
e 42 124
e 42 125
e 42 126
e 42 127
e 42 131
e 42 132
e 42 134
e 42 135
e 42 136
e 42 140
e 42 141
e 42 142
e 42 144
e 42 145
e 42 147
e 42 148
e 43 44
e 43 45
e 43 46
e 43 51
e 43 53
e 43 55
e 43 57
e 43 59
e 43 60
e 43 62
e 43 63
e 43 64
e 43 65
e 43 66
e 43 67
e 43 68
e 43 73
e 43 75
e 43 76
e 43 78
e 43 80
e 43 81
e 43 84
e 43 87
e 43 90
e 43 91
e 43 93
e 43 95
e 43 99
e 43 100
e 43 102
e 43 104
e 43 106
e 43 108
e 43 109
e 43 112
e 43 116
e 43 117
e 43 121
e 43 126
e 43 128
e 43 132
e 43 134
e 43 135
e 43 136
e 43 138
e 43 140
e 43 141
e 43 143
e 43 145
e 43 149
e 43 150
e 44 48
e 44 51
e 44 54
e 44 56
e 44 62
e 44 65
e 44 69
e 44 75
e 44 83
e 44 88
e 44 89
e 44 90
e 44 92
e 44 96
e 44 98
e 44 99
e 44 101
e 44 102
e 44 104
e 44 107
e 44 108
e 44 109
e 44 112
e 44 115
e 44 116
e 44 119
e 44 124
e 44 128
e 44 130
e 44 131
e 44 132
e 44 134
e 44 135
e 44 137
e 44 138
e 44 139
e 44 143
e 44 144
e 44 147
e 44 150
e 45 46
e 45 47
e 45 49
e 45 50
e 45 51
e 45 54
e 45 56
e 45 61
e 45 64
e 45 73
e 45 82
e 45 83
e 45 87
e 45 88
e 45 90
e 45 91
e 45 92
e 45 93
e 45 95
e 45 101
e 45 108
e 45 109
e 45 110
e 45 122
e 45 123
e 45 124
e 45 128
e 45 134
e 45 135
e 45 141
e 45 142
e 45 143
e 45 145
e 45 146
e 46 47
e 46 52
e 46 55
e 46 56
e 46 58
e 46 63
e 46 66
e 46 70
e 46 72
e 46 73
e 46 76
e 46 77
e 46 78
e 46 81
e 46 83
e 46 87
e 46 88
e 46 90
e 46 92
e 46 93
e 46 95
e 46 97
e 46 98
e 46 99
e 46 103
e 46 107
e 46 110
e 46 116
e 46 118
e 46 120
e 46 128
e 46 129
e 46 132
e 46 133
e 46 136
e 46 137
e 46 139
e 46 140
e 46 144
e 46 145
e 46 148
e 46 149
e 46 150
e 47 49
e 47 51
e 47 54
e 47 57
e 47 58
e 47 60
e 47 69
e 47 70
e 47 71
e 47 72
e 47 73
e 47 74
e 47 78
e 47 81
e 47 84
e 47 85
e 47 86
e 47 87
e 47 88
e 47 90
e 47 93
e 47 95
e 47 96
e 47 102
e 47 103
e 47 110
e 47 120
e 47 123
e 47 126
e 47 127
e 47 128
e 47 129
e 47 130
e 47 133
e 47 138
e 47 139
e 47 143
e 47 144
e 47 146
e 47 147
e 47 149
e 48 49
e 48 53
e 48 55
e 48 57
e 48 59
e 48 60
e 48 61
e 48 62
e 48 64
e 48 65
e 48 66
e 48 69
e 48 71
e 48 73
e 48 74
e 48 75
e 48 79
e 48 80
e 48 81
e 48 82
e 48 85
e 48 86
e 48 88
e 48 89
e 48 90
e 48 95
e 48 97
e 48 99
e 48 100
e 48 102
e 48 107
e 48 110
e 48 113
e 48 114
e 48 119
e 48 121
e 48 124
e 48 126
e 48 127
e 48 128
e 48 129
e 48 131
e 48 135
e 48 136
e 48 139
e 48 141
e 48 142
e 48 143
e 48 144
e 48 146
e 48 147
e 48 148
e 49 51
e 49 52
e 49 55
e 49 56
e 49 57
e 49 63
e 49 64
e 49 65
e 49 70
e 49 74
e 49 75
e 49 76
e 49 77
e 49 80
e 49 83
e 49 85
e 49 88
e 49 98
e 49 102
e 49 103
e 49 105
e 49 109
e 49 110
e 49 114
e 49 116
e 49 118
e 49 121
e 49 125
e 49 126
e 49 129
e 49 130
e 49 134
e 49 135
e 49 136
e 49 140
e 49 141
e 49 142
e 49 143
e 49 144
e 49 147
e 49 149
e 50 51
e 50 53
e 50 56
e 50 63
e 50 64
e 50 75
e 50 76
e 50 79
e 50 82
e 50 83
e 50 84
e 50 86
e 50 87
e 50 89
e 50 92
e 50 93
e 50 94
e 50 95
e 50 96
e 50 100
e 50 107
e 50 108
e 50 110
e 50 119
e 50 120
e 50 122
e 50 125
e 50 129
e 50 132
e 50 133
e 50 136
e 50 139
e 50 142
e 50 144
e 50 147
e 50 150
e 51 52
e 51 54
e 51 56
e 51 57
e 51 59
e 51 61
e 51 65
e 51 70
e 51 80
e 51 82
e 51 86
e 51 87
e 51 89
e 51 91
e 51 92
e 51 94
e 51 96
e 51 102
e 51 103
e 51 106
e 51 116
e 51 117
e 51 118
e 51 127
e 51 128
e 51 130
e 51 132
e 51 133
e 51 136
e 51 139
e 51 141
e 51 142
e 51 144
e 51 145
e 51 148
e 52 53
e 52 57
e 52 58
e 52 59
e 52 62
e 52 65
e 52 68
e 52 73
e 52 79
e 52 81
e 52 82
e 52 86
e 52 93
e 52 97
e 52 98
e 52 99
e 52 102
e 52 104
e 52 106
e 52 108
e 52 116
e 52 117
e 52 118
e 52 119
e 52 122
e 52 123
e 52 124
e 52 127
e 52 129
e 52 136
e 52 138
e 52 140
e 52 145
e 52 148
e 52 150
e 53 56
e 53 58
e 53 59
e 53 60
e 53 61
e 53 63
e 53 64
e 53 68
e 53 69
e 53 75
e 53 76
e 53 77
e 53 78
e 53 79
e 53 80
e 53 84
e 53 86
e 53 87
e 53 89
e 53 90
e 53 91
e 53 96
e 53 104
e 53 109
e 53 110
e 53 113
e 53 115
e 53 116
e 53 118
e 53 121
e 53 122
e 53 123
e 53 127
e 53 130
e 53 137
e 53 138
e 53 139
e 53 141
e 53 147
e 53 149
e 53 150
e 54 55
e 54 56
e 54 62
e 54 63
e 54 65
e 54 73
e 54 78
e 54 81
e 54 86
e 54 87
e 54 90
e 54 91
e 54 93
e 54 98
e 54 100
e 54 104
e 54 112
e 54 113
e 54 120
e 54 122
e 54 124
e 54 127
e 54 130
e 54 132
e 54 137
e 54 138
e 54 140
e 54 141
e 54 145
e 54 150
e 55 57
e 55 58
e 55 59
e 55 61
e 55 63
e 55 64
e 55 67
e 55 69
e 55 70
e 55 71
e 55 72
e 55 73
e 55 74
e 55 75
e 55 77
e 55 80
e 55 81
e 55 83
e 55 84
e 55 86
e 55 90
e 55 91
e 55 94
e 55 95
e 55 96
e 55 97
e 55 100
e 55 103
e 55 105
e 55 106
e 55 109
e 55 111
e 55 116
e 55 118
e 55 119
e 55 121
e 55 122
e 55 124
e 55 128
e 55 131
e 55 133
e 55 135
e 55 139
e 55 141
e 55 143
e 55 146
e 55 147
e 55 149
e 55 150
e 56 58
e 56 62
e 56 64
e 56 66
e 56 68
e 56 72
e 56 73
e 56 75
e 56 76
e 56 77
e 56 81
e 56 83
e 56 84
e 56 88
e 56 91
e 56 92
e 56 103
e 56 104
e 56 105
e 56 106
e 56 112
e 56 120
e 56 122
e 56 124
e 56 126
e 56 128
e 56 131
e 56 133
e 56 138
e 56 139
e 56 144
e 56 146
e 56 147
e 56 148
e 56 149
e 56 150
e 57 59
e 57 60
e 57 61
e 57 63
e 57 64
e 57 65
e 57 70
e 57 73
e 57 77
e 57 78
e 57 82
e 57 83
e 57 91
e 57 92
e 57 102
e 57 104
e 57 112
e 57 116
e 57 118
e 57 119
e 57 120
e 57 123
e 57 125
e 57 126
e 57 128
e 57 129
e 57 131
e 57 133
e 57 135
e 57 136
e 57 139
e 57 142
e 57 144
e 57 146
e 57 148
e 57 150
e 58 59
e 58 71
e 58 72
e 58 76
e 58 80
e 58 82
e 58 85
e 58 86
e 58 87
e 58 88
e 58 89
e 58 90
e 58 92
e 58 94
e 58 95
e 58 97
e 58 98
e 58 100
e 58 101
e 58 103
e 58 104
e 58 106
e 58 108
e 58 110
e 58 111
e 58 112
e 58 114
e 58 120
e 58 121
e 58 122
e 58 131
e 58 133
e 58 135
e 58 136
e 58 137
e 58 140
e 58 141
e 58 147
e 58 148
e 59 63
e 59 71
e 59 76
e 59 79
e 59 83
e 59 85
e 59 89
e 59 90
e 59 92
e 59 96
e 59 97
e 59 104
e 59 106
e 59 107
e 59 108
e 59 109
e 59 110
e 59 111
e 59 115
e 59 116
e 59 125
e 59 135
e 59 140
e 59 143
e 59 145
e 59 146
e 59 148
e 60 63
e 60 65
e 60 69
e 60 72
e 60 74
e 60 79
e 60 80
e 60 82
e 60 83
e 60 85
e 60 88
e 60 92
e 60 94
e 60 95
e 60 100
e 60 101
e 60 103
e 60 104
e 60 105
e 60 106
e 60 108
e 60 116
e 60 117
e 60 121
e 60 128
e 60 130
e 60 132
e 60 134
e 60 138
e 60 140
e 60 142
e 60 144
e 60 147
e 60 148
e 60 149
e 61 63
e 61 68
e 61 69
e 61 70
e 61 72
e 61 77
e 61 80
e 61 83
e 61 84
e 61 85
e 61 86
e 61 87
e 61 89
e 61 91
e 61 94
e 61 95
e 61 99
e 61 103
e 61 105
e 61 106
e 61 108
e 61 111
e 61 114
e 61 117
e 61 118
e 61 119
e 61 120
e 61 123
e 61 125
e 61 127
e 61 129
e 61 131
e 61 132
e 61 133
e 61 134
e 61 139
e 61 141
e 61 143
e 61 145
e 61 147
e 61 148
e 61 150
e 62 63
e 62 65
e 62 66
e 62 68
e 62 70
e 62 72
e 62 78
e 62 79
e 62 82
e 62 83
e 62 84
e 62 86
e 62 87
e 62 88
e 62 89
e 62 90
e 62 98
e 62 99
e 62 101
e 62 102
e 62 104
e 62 105
e 62 107
e 62 111
e 62 114
e 62 115
e 62 118
e 62 119
e 62 121
e 62 122
e 62 124
e 62 127
e 62 128
e 62 131
e 62 134
e 62 136
e 62 137
e 62 138
e 62 142
e 62 144
e 62 145
e 62 148
e 62 149
e 63 65
e 63 66
e 63 71
e 63 75
e 63 77
e 63 80
e 63 81
e 63 82
e 63 87
e 63 88
e 63 89
e 63 90
e 63 99
e 63 102
e 63 107
e 63 111
e 63 115
e 63 116
e 63 119
e 63 120
e 63 125
e 63 127
e 63 129
e 63 130
e 63 131
e 63 132
e 63 137
e 63 143
e 63 145
e 63 146
e 63 148
e 63 150
e 64 67
e 64 69
e 64 70
e 64 71
e 64 72
e 64 76
e 64 78
e 64 82
e 64 84
e 64 85
e 64 86
e 64 90
e 64 92
e 64 93
e 64 97
e 64 102
e 64 105
e 64 111
e 64 113
e 64 116
e 64 118
e 64 123
e 64 124
e 64 125
e 64 126
e 64 129
e 64 132
e 64 133
e 64 136
e 64 137
e 64 140
e 64 141
e 64 143
e 64 145
e 64 146
e 64 150
e 65 68
e 65 76
e 65 80
e 65 82
e 65 83
e 65 88
e 65 90
e 65 97
e 65 98
e 65 99
e 65 100
e 65 101
e 65 102
e 65 104
e 65 106
e 65 109
e 65 111
e 65 112
e 65 113
e 65 117
e 65 118
e 65 121
e 65 122
e 65 128
e 65 129
e 65 136
e 65 142
e 65 144
e 65 146
e 65 147
e 66 68
e 66 70
e 66 75
e 66 76
e 66 81
e 66 82
e 66 84
e 66 91
e 66 97
e 66 98
e 66 104
e 66 106
e 66 107
e 66 108
e 66 109
e 66 110
e 66 113
e 66 115
e 66 116
e 66 121
e 66 122
e 66 124
e 66 125
e 66 127
e 66 135
e 66 136
e 66 145
e 66 148
e 67 68
e 67 76
e 67 77
e 67 78
e 67 79
e 67 83
e 67 86
e 67 87
e 67 89
e 67 96
e 67 98
e 67 99
e 67 100
e 67 103
e 67 106
e 67 107
e 67 108
e 67 110
e 67 111
e 67 114
e 67 116
e 67 119
e 67 121
e 67 122
e 67 124
e 67 127
e 67 128
e 67 129
e 67 130
e 67 132
e 67 133
e 67 135
e 67 138
e 67 139
e 67 140
e 67 143
e 67 145
e 68 69
e 68 70
e 68 74
e 68 75
e 68 80
e 68 84
e 68 89
e 68 90
e 68 91
e 68 92
e 68 94
e 68 98
e 68 103
e 68 105
e 68 106
e 68 109
e 68 113
e 68 114
e 68 115
e 68 119
e 68 125
e 68 130
e 68 139
e 68 140
e 68 141
e 68 142
e 68 146
e 69 72
e 69 73
e 69 74
e 69 76
e 69 77
e 69 80
e 69 81
e 69 86
e 69 87
e 69 91
e 69 98
e 69 99
e 69 100
e 69 103
e 69 108
e 69 109
e 69 110
e 69 111
e 69 114
e 69 115
e 69 116
e 69 117
e 69 119
e 69 122
e 69 124
e 69 125
e 69 127
e 69 131
e 69 132
e 69 135
e 69 137
e 69 139
e 69 140
e 69 143
e 69 145
e 69 150
e 70 72
e 70 73
e 70 75
e 70 77
e 70 78
e 70 79
e 70 80
e 70 82
e 70 84
e 70 85
e 70 87
e 70 88
e 70 93
e 70 94
e 70 96
e 70 101
e 70 104
e 70 107
e 70 109
e 70 113
e 70 116
e 70 119
e 70 123
e 70 125
e 70 131
e 70 132
e 70 137
e 70 140
e 70 145
e 70 146
e 70 147
e 70 149
e 70 150
e 71 82
e 71 86
e 71 90
e 71 93
e 71 97
e 71 102
e 71 103
e 71 104
e 71 105
e 71 109
e 71 111
e 71 112
e 71 113
e 71 114
e 71 116
e 71 117
e 71 119
e 71 121
e 71 123
e 71 124
e 71 126
e 71 128
e 71 134
e 71 135
e 71 137
e 71 146
e 71 149
e 71 150
e 72 73
e 72 76
e 72 78
e 72 80
e 72 82
e 72 84
e 72 88
e 72 92
e 72 94
e 72 98
e 72 103
e 72 109
e 72 111
e 72 112
e 72 113
e 72 115
e 72 117
e 72 118
e 72 119
e 72 120
e 72 123
e 72 124
e 72 125
e 72 126
e 72 128
e 72 129
e 72 130
e 72 131
e 72 132
e 72 133
e 72 134
e 72 136
e 72 138
e 72 140
e 72 142
e 72 144
e 72 150
e 73 74
e 73 77
e 73 79
e 73 80
e 73 81
e 73 82
e 73 87
e 73 90
e 73 93
e 73 99
e 73 101
e 73 102
e 73 103
e 73 110
e 73 118
e 73 120
e 73 121
e 73 122
e 73 123
e 73 124
e 73 125
e 73 126
e 73 127
e 73 130
e 73 133
e 73 137
e 73 141
e 73 142
e 73 145
e 73 149
e 74 75
e 74 81
e 74 83
e 74 84
e 74 86
e 74 88
e 74 89
e 74 91
e 74 92
e 74 98
e 74 99
e 74 103
e 74 105
e 74 106
e 74 114
e 74 129
e 74 135
e 74 140
e 74 142
e 74 144
e 74 148
e 74 149
e 74 150
e 75 79
e 75 86
e 75 89
e 75 90
e 75 93
e 75 95
e 75 96
e 75 97
e 75 101
e 75 102
e 75 103
e 75 107
e 75 109
e 75 110
e 75 112
e 75 115
e 75 116
e 75 117
e 75 125
e 75 126
e 75 128
e 75 133
e 75 134
e 75 136
e 75 137
e 75 144
e 75 146
e 75 148
e 75 149
e 75 150
e 76 77
e 76 78
e 76 80
e 76 81
e 76 83
e 76 85
e 76 86
e 76 88
e 76 89
e 76 90
e 76 98
e 76 100
e 76 101
e 76 102
e 76 106
e 76 108
e 76 109
e 76 113
e 76 115
e 76 120
e 76 122
e 76 128
e 76 131
e 76 132
e 76 134
e 76 135
e 76 141
e 76 142
e 76 145
e 76 146
e 76 147
e 76 148
e 77 79
e 77 80
e 77 83
e 77 85
e 77 87
e 77 89
e 77 91
e 77 94
e 77 96
e 77 97
e 77 98
e 77 99
e 77 102
e 77 105
e 77 106
e 77 109
e 77 110
e 77 115
e 77 116
e 77 117
e 77 118
e 77 119
e 77 121
e 77 123
e 77 124
e 77 125
e 77 127
e 77 132
e 77 135
e 77 137
e 77 141
e 77 142
e 77 144
e 77 145
e 77 146
e 77 149
e 78 79
e 78 80
e 78 86
e 78 92
e 78 97
e 78 98
e 78 109
e 78 111
e 78 114
e 78 115
e 78 116
e 78 118
e 78 120
e 78 121
e 78 128
e 78 132
e 78 147
e 79 83
e 79 86
e 79 87
e 79 88
e 79 98
e 79 100
e 79 102
e 79 106
e 79 107
e 79 109
e 79 111
e 79 116
e 79 126
e 79 128
e 79 130
e 79 131
e 79 134
e 79 136
e 79 139
e 79 141
e 79 142
e 79 144
e 79 145
e 79 150
e 80 81
e 80 84
e 80 87
e 80 88
e 80 92
e 80 99
e 80 102
e 80 104
e 80 106
e 80 107
e 80 109
e 80 110
e 80 114
e 80 116
e 80 119
e 80 121
e 80 122
e 80 124
e 80 125
e 80 126
e 80 127
e 80 133
e 80 136
e 80 137
e 80 140
e 80 141
e 80 146
e 80 147
e 81 83
e 81 86
e 81 88
e 81 90
e 81 95
e 81 97
e 81 100
e 81 102
e 81 103
e 81 106
e 81 107
e 81 111
e 81 112
e 81 114
e 81 118
e 81 120
e 81 121
e 81 122
e 81 124
e 81 130
e 81 131
e 81 132
e 81 134
e 81 136
e 81 138
e 81 144
e 81 145
e 81 149
e 81 150
e 82 90
e 82 93
e 82 96
e 82 97
e 82 100
e 82 101
e 82 103
e 82 109
e 82 111
e 82 113
e 82 114
e 82 116
e 82 118
e 82 121
e 82 122
e 82 127
e 82 131
e 82 135
e 82 136
e 82 137
e 82 139
e 82 140
e 82 142
e 82 144
e 82 145
e 82 148
e 82 150
e 83 85
e 83 87
e 83 90
e 83 91
e 83 93
e 83 94
e 83 96
e 83 100
e 83 104
e 83 112
e 83 113
e 83 114
e 83 118
e 83 121
e 83 130
e 83 132
e 83 135
e 83 138
e 83 139
e 83 149
e 84 88
e 84 91
e 84 92
e 84 93
e 84 94
e 84 96
e 84 97
e 84 98
e 84 101
e 84 102
e 84 105
e 84 106
e 84 107
e 84 110
e 84 111
e 84 117
e 84 125
e 84 126
e 84 131
e 84 132
e 84 135
e 84 136
e 84 143
e 84 145
e 84 146
e 84 148
e 85 86
e 85 90
e 85 92
e 85 97
e 85 105
e 85 108
e 85 110
e 85 115
e 85 118
e 85 119
e 85 126
e 85 129
e 85 130
e 85 132
e 85 133
e 85 136
e 85 137
e 85 145
e 85 146
e 85 149
e 86 88
e 86 89
e 86 92
e 86 97
e 86 103
e 86 107
e 86 109
e 86 111
e 86 117
e 86 119
e 86 122
e 86 124
e 86 126
e 86 129
e 86 130
e 86 134
e 86 136
e 86 137
e 86 138
e 86 140
e 86 142
e 86 144
e 86 147
e 87 91
e 87 95
e 87 99
e 87 101
e 87 102
e 87 105
e 87 108
e 87 115
e 87 116
e 87 118
e 87 121
e 87 123
e 87 125
e 87 127
e 87 128
e 87 130
e 87 131
e 87 132
e 87 133
e 87 138
e 87 145
e 87 149
e 88 91
e 88 97
e 88 98
e 88 101
e 88 106
e 88 108
e 88 109
e 88 110
e 88 114
e 88 115
e 88 116
e 88 120
e 88 125
e 88 126
e 88 127
e 88 132
e 88 134
e 88 136
e 88 146
e 88 147
e 88 148
e 88 149
e 89 94
e 89 97
e 89 100
e 89 103
e 89 106
e 89 107
e 89 108
e 89 109
e 89 110
e 89 113
e 89 115
e 89 120
e 89 123
e 89 124
e 89 128
e 89 130
e 89 133
e 89 138
e 89 140
e 89 146
e 90 92
e 90 94
e 90 95
e 90 97
e 90 98
e 90 100
e 90 103
e 90 105
e 90 109
e 90 112
e 90 114
e 90 115
e 90 117
e 90 118
e 90 125
e 90 128
e 90 133
e 90 136
e 90 141
e 90 142
e 90 143
e 90 150
e 91 92
e 91 97
e 91 102
e 91 103
e 91 107
e 91 115
e 91 118
e 91 120
e 91 122
e 91 124
e 91 126
e 91 127
e 91 129
e 91 132
e 91 135
e 91 146
e 92 93
e 92 94
e 92 99
e 92 103
e 92 104
e 92 111
e 92 113
e 92 115
e 92 116
e 92 118
e 92 119
e 92 120
e 92 121
e 92 122
e 92 123
e 92 126
e 92 128
e 92 130
e 92 131
e 92 133
e 92 137
e 92 138
e 92 143
e 92 144
e 93 99
e 93 101
e 93 102
e 93 105
e 93 106
e 93 107
e 93 108
e 93 110
e 93 114
e 93 118
e 93 122
e 93 123
e 93 127
e 93 128
e 93 130
e 93 131
e 93 133
e 93 135
e 93 139
e 93 142
e 93 145
e 93 148
e 93 149
e 94 95
e 94 99
e 94 101
e 94 103
e 94 104
e 94 106
e 94 107
e 94 111
e 94 112
e 94 113
e 94 114
e 94 115
e 94 120
e 94 128
e 94 130
e 94 133
e 94 134
e 94 140
e 94 142
e 94 143
e 94 145
e 95 98
e 95 99
e 95 103
e 95 104
e 95 106
e 95 107
e 95 113
e 95 122
e 95 129
e 95 131
e 95 138
e 95 139
e 95 140
e 95 141
e 95 146
e 95 149
e 96 99
e 96 103
e 96 104
e 96 105
e 96 108
e 96 110
e 96 111
e 96 112
e 96 113
e 96 114
e 96 115
e 96 117
e 96 120
e 96 122
e 96 124
e 96 127
e 96 128
e 96 129
e 96 131
e 96 133
e 96 134
e 96 135
e 96 138
e 96 139
e 96 140
e 96 147
e 97 98
e 97 99
e 97 103
e 97 104
e 97 106
e 97 108
e 97 112
e 97 113
e 97 116
e 97 118
e 97 120
e 97 126
e 97 131
e 97 132
e 98 107
e 98 109
e 98 110
e 98 114
e 98 117
e 98 122
e 98 123
e 98 125
e 98 126
e 98 129
e 98 131
e 98 135
e 98 137
e 98 138
e 98 143
e 98 147
e 99 101
e 99 103
e 99 104
e 99 107
e 99 108
e 99 115
e 99 120
e 99 123
e 99 125
e 99 127
e 99 128
e 99 129
e 99 130
e 99 132
e 99 138
e 99 140
e 99 146
e 99 147
e 100 101
e 100 107
e 100 109
e 100 111
e 100 114
e 100 115
e 100 117
e 100 118
e 100 119
e 100 122
e 100 123
e 100 124
e 100 125
e 100 126
e 100 130
e 100 132
e 100 133
e 100 135
e 100 139
e 100 141
e 100 144
e 100 146
e 100 149
e 100 150
e 101 102
e 101 103
e 101 104
e 101 105
e 101 106
e 101 107
e 101 108
e 101 112
e 101 117
e 101 118
e 101 119
e 101 122
e 101 124
e 101 126
e 101 128
e 101 130
e 101 133
e 101 134
e 101 136
e 101 138
e 101 141
e 101 144
e 101 145
e 101 146
e 102 103
e 102 105
e 102 112
e 102 114
e 102 115
e 102 116
e 102 117
e 102 119
e 102 121
e 102 122
e 102 123
e 102 124
e 102 132
e 102 133
e 102 134
e 102 137
e 102 141
e 102 142
e 102 145
e 102 148
e 102 149
e 102 150
e 103 105
e 103 113
e 103 122
e 103 124
e 103 131
e 103 135
e 103 136
e 103 138
e 103 139
e 103 141
e 103 146
e 103 148
e 103 149
e 103 150
e 104 105
e 104 110
e 104 115
e 104 119
e 104 121
e 104 122
e 104 123
e 104 127
e 104 128
e 104 129
e 104 132
e 104 133
e 104 135
e 104 136
e 104 138
e 104 143
e 104 144
e 104 149
e 105 114
e 105 115
e 105 120
e 105 121
e 105 122
e 105 123
e 105 124
e 105 125
e 105 128
e 105 129
e 105 131
e 105 139
e 105 143
e 105 144
e 105 145
e 106 107
e 106 108
e 106 110
e 106 114
e 106 115
e 106 116
e 106 117
e 106 120
e 106 125
e 106 129
e 106 131
e 106 132
e 106 136
e 106 138
e 106 141
e 106 144
e 106 145
e 106 147
e 106 149
e 107 108
e 107 109
e 107 115
e 107 117
e 107 118
e 107 119
e 107 120
e 107 122
e 107 123
e 107 124
e 107 127
e 107 128
e 107 130
e 107 134
e 107 136
e 107 137
e 107 140
e 107 146
e 108 109
e 108 110
e 108 112
e 108 113
e 108 117
e 108 119
e 108 123
e 108 124
e 108 132
e 108 133
e 108 136
e 108 137
e 108 142
e 108 146
e 108 148
e 109 110
e 109 115
e 109 116
e 109 118
e 109 119
e 109 120
e 109 123
e 109 128
e 109 130
e 109 133
e 109 134
e 109 137
e 109 138
e 109 139
e 109 144
e 109 147
e 109 150
e 110 112
e 110 113
e 110 122
e 110 124
e 110 127
e 110 129
e 110 133
e 110 134
e 110 137
e 110 141
e 110 142
e 110 143
e 110 145
e 110 146
e 110 148
e 111 112
e 111 114
e 111 120
e 111 124
e 111 125
e 111 126
e 111 127
e 111 128
e 111 135
e 111 136
e 111 138
e 111 141
e 111 143
e 111 144
e 111 145
e 111 146
e 111 148
e 112 113
e 112 115
e 112 116
e 112 119
e 112 120
e 112 121
e 112 123
e 112 128
e 112 129
e 112 133
e 112 134
e 112 137
e 112 144
e 112 149
e 112 150
e 113 114
e 113 116
e 113 118
e 113 119
e 113 123
e 113 124
e 113 127
e 113 130
e 113 132
e 113 136
e 113 139
e 113 141
e 113 146
e 113 147
e 113 148
e 114 115
e 114 117
e 114 120
e 114 122
e 114 123
e 114 125
e 114 128
e 114 129
e 114 130
e 114 131
e 114 133
e 114 135
e 114 137
e 114 138
e 114 140
e 114 141
e 114 142
e 114 143
e 114 146
e 114 149
e 115 119
e 115 122
e 115 123
e 115 125
e 115 127
e 115 128
e 115 137
e 115 141
e 115 142
e 115 144
e 115 145
e 115 146
e 115 147
e 115 149
e 116 126
e 116 127
e 116 128
e 116 129
e 116 130
e 116 133
e 116 136
e 116 138
e 116 141
e 116 143
e 116 145
e 116 149
e 116 150
e 117 123
e 117 126
e 117 130
e 117 135
e 117 137
e 117 139
e 117 141
e 117 143
e 118 120
e 118 124
e 118 125
e 118 126
e 118 127
e 118 132
e 118 133
e 118 134
e 118 135
e 118 136
e 118 137
e 118 140
e 118 143
e 118 144
e 118 149
e 119 121
e 119 122
e 119 123
e 119 124
e 119 125
e 119 130
e 119 133
e 119 138
e 119 139
e 119 140
e 119 141
e 119 144
e 119 147
e 120 123
e 120 131
e 120 133
e 120 134
e 120 138
e 120 140
e 120 141
e 120 144
e 120 149
e 121 122
e 121 124
e 121 126
e 121 129
e 121 134
e 121 140
e 121 145
e 121 147
e 121 148
e 122 125
e 122 126
e 122 127
e 122 131
e 122 132
e 122 134
e 122 136
e 122 147
e 122 148
e 123 124
e 123 129
e 123 131
e 123 134
e 123 136
e 123 138
e 123 142
e 123 144
e 123 147
e 123 150
e 124 126
e 124 129
e 124 132
e 124 134
e 124 136
e 124 137
e 124 138
e 124 139
e 124 142
e 124 146
e 125 129
e 125 131
e 125 133
e 125 134
e 125 136
e 125 140
e 125 142
e 125 146
e 125 147
e 126 127
e 126 129
e 126 134
e 126 138
e 126 143
e 126 144
e 126 145
e 126 148
e 127 128
e 127 129
e 127 131
e 127 140
e 127 143
e 127 144
e 127 145
e 127 148
e 127 149
e 127 150
e 128 129
e 128 131
e 128 132
e 128 135
e 128 139
e 128 142
e 128 144
e 128 146
e 128 150
e 129 133
e 129 138
e 129 140
e 129 141
e 129 142
e 129 143
e 129 144
e 129 146
e 129 147
e 129 148
e 130 134
e 130 135
e 130 136
e 130 137
e 130 141
e 130 143
e 130 147
e 130 148
e 131 132
e 131 137
e 131 140
e 131 142
e 131 145
e 131 150
e 132 138
e 132 139
e 132 141
e 132 142
e 132 144
e 132 146
e 132 148
e 133 135
e 133 144
e 133 145
e 133 148
e 133 149
e 134 135
e 134 140
e 134 146
e 134 147
e 135 140
e 135 141
e 135 142
e 135 144
e 135 146
e 135 149
e 136 140
e 136 142
e 136 143
e 136 145
e 136 146
e 136 147
e 136 148
e 137 138
e 137 139
e 137 141
e 137 146
e 138 142
e 138 146
e 139 141
e 139 142
e 139 143
e 139 147
e 139 148
e 139 149
e 140 141
e 140 142
e 140 143
e 140 144
e 140 145
e 140 147
e 141 142
e 141 145
e 141 148
e 141 149
e 142 143
e 142 145
e 143 144
e 143 145
e 143 147
e 143 148
e 144 147
e 145 148
e 145 149
e 145 150
e 147 148
e 148 149
e 148 150
e 149 150
